(set-info :status sat)
(declare-const symbol_25 (_ BitVec 32))
(declare-const symbol_35 (_ BitVec 32))
(declare-const symbol_27 (_ BitVec 32))
(declare-const symbol_17 (_ BitVec 32))
(declare-const symbol_33 (_ BitVec 32))
(declare-const symbol_29 (_ BitVec 32))
(declare-const symbol_23 (_ BitVec 32))
(declare-const symbol_15 (_ BitVec 32))
(declare-const symbol_9 (_ BitVec 32))
(declare-const symbol_11 (_ BitVec 32))
(declare-const symbol_3 (_ BitVec 32))
(declare-const symbol_1 (_ BitVec 32))
(declare-const symbol_41 (_ BitVec 32))
(declare-const symbol_21 (_ BitVec 32))
(declare-const symbol_19 (_ BitVec 32))
(declare-const symbol_37 (_ BitVec 32))
(declare-const symbol_31 (_ BitVec 32))
(declare-const symbol_13 (_ BitVec 32))
(declare-const symbol_7 (_ BitVec 32))
(declare-const symbol_39 (_ BitVec 32))
(declare-const symbol_5 (_ BitVec 32))
(assert (= symbol_31 symbol_41))
(assert (not (= symbol_29 symbol_41)))
(assert (not (= symbol_27 symbol_41)))
(assert (not (= symbol_25 symbol_41)))
(assert (not (= symbol_23 symbol_41)))
(assert (not (= symbol_21 symbol_41)))
(assert (not (= symbol_19 symbol_41)))
(assert (not (= symbol_17 symbol_41)))
(assert (not (= symbol_15 symbol_41)))
(assert (not (= symbol_13 symbol_41)))
(assert (not (= symbol_11 symbol_41)))
(assert (not (= symbol_9 symbol_41)))
(assert (not (= symbol_7 symbol_41)))
(assert (not (= symbol_5 symbol_41)))
(assert (not (= symbol_3 symbol_41)))
(assert (not (= symbol_1 symbol_41)))
(assert (not (= symbol_37 symbol_39)))
(assert (not (= symbol_35 symbol_39)))
(assert (not (= symbol_33 symbol_39)))
(assert (not (= symbol_31 symbol_39)))
(assert (not (= symbol_29 symbol_39)))
(assert (not (= symbol_27 symbol_39)))
(assert (not (= symbol_25 symbol_39)))
(assert (not (= symbol_23 symbol_39)))
(assert (not (= symbol_21 symbol_39)))
(assert (not (= symbol_19 symbol_39)))
(assert (not (= symbol_17 symbol_39)))
(assert (not (= symbol_15 symbol_39)))
(assert (not (= symbol_13 symbol_39)))
(assert (not (= symbol_11 symbol_39)))
(assert (not (= symbol_9 symbol_39)))
(assert (not (= symbol_7 symbol_39)))
(assert (not (= symbol_5 symbol_39)))
(assert (not (= symbol_3 symbol_39)))
(assert (not (= symbol_1 symbol_39)))
(assert (not (= symbol_35 symbol_37)))
(assert (not (= symbol_33 symbol_37)))
(assert (not (= symbol_31 symbol_37)))
(assert (not (= symbol_29 symbol_37)))
(assert (not (= symbol_27 symbol_37)))
(assert (not (= symbol_25 symbol_37)))
(assert (not (= symbol_23 symbol_37)))
(assert (not (= symbol_21 symbol_37)))
(assert (not (= symbol_19 symbol_37)))
(assert (not (= symbol_17 symbol_37)))
(assert (not (= symbol_15 symbol_37)))
(assert (not (= symbol_13 symbol_37)))
(assert (not (= symbol_11 symbol_37)))
(assert (not (= symbol_9 symbol_37)))
(assert (not (= symbol_7 symbol_37)))
(assert (not (= symbol_5 symbol_37)))
(assert (not (= symbol_3 symbol_37)))
(assert (not (= symbol_1 symbol_37)))
(assert (not (= symbol_33 symbol_35)))
(assert (not (= symbol_31 symbol_35)))
(assert (not (= symbol_29 symbol_35)))
(assert (not (= symbol_27 symbol_35)))
(assert (not (= symbol_25 symbol_35)))
(assert (not (= symbol_23 symbol_35)))
(assert (not (= symbol_21 symbol_35)))
(assert (not (= symbol_19 symbol_35)))
(assert (not (= symbol_17 symbol_35)))
(assert (not (= symbol_15 symbol_35)))
(assert (not (= symbol_13 symbol_35)))
(assert (not (= symbol_11 symbol_35)))
(assert (not (= symbol_9 symbol_35)))
(assert (not (= symbol_7 symbol_35)))
(assert (not (= symbol_5 symbol_35)))
(assert (not (= symbol_3 symbol_35)))
(assert (not (= symbol_1 symbol_35)))
(assert (not (= symbol_31 symbol_33)))
(assert (not (= symbol_29 symbol_33)))
(assert (not (= symbol_27 symbol_33)))
(assert (not (= symbol_25 symbol_33)))
(assert (not (= symbol_23 symbol_33)))
(assert (not (= symbol_21 symbol_33)))
(assert (not (= symbol_19 symbol_33)))
(assert (not (= symbol_17 symbol_33)))
(assert (not (= symbol_15 symbol_33)))
(assert (not (= symbol_13 symbol_33)))
(assert (not (= symbol_11 symbol_33)))
(assert (not (= symbol_9 symbol_33)))
(assert (not (= symbol_7 symbol_33)))
(assert (not (= symbol_5 symbol_33)))
(assert (not (= symbol_3 symbol_33)))
(assert (not (= symbol_1 symbol_33)))
(assert (not (= symbol_29 symbol_31)))
(assert (not (= symbol_27 symbol_31)))
(assert (not (= symbol_25 symbol_31)))
(assert (not (= symbol_23 symbol_31)))
(assert (not (= symbol_21 symbol_31)))
(assert (not (= symbol_19 symbol_31)))
(assert (not (= symbol_17 symbol_31)))
(assert (not (= symbol_15 symbol_31)))
(assert (not (= symbol_13 symbol_31)))
(assert (not (= symbol_11 symbol_31)))
(assert (not (= symbol_9 symbol_31)))
(assert (not (= symbol_7 symbol_31)))
(assert (not (= symbol_5 symbol_31)))
(assert (not (= symbol_3 symbol_31)))
(assert (not (= symbol_1 symbol_31)))
(assert (not (= symbol_27 symbol_29)))
(assert (not (= symbol_25 symbol_29)))
(assert (not (= symbol_23 symbol_29)))
(assert (not (= symbol_21 symbol_29)))
(assert (not (= symbol_19 symbol_29)))
(assert (not (= symbol_17 symbol_29)))
(assert (not (= symbol_15 symbol_29)))
(assert (not (= symbol_13 symbol_29)))
(assert (not (= symbol_11 symbol_29)))
(assert (not (= symbol_9 symbol_29)))
(assert (not (= symbol_7 symbol_29)))
(assert (not (= symbol_5 symbol_29)))
(assert (not (= symbol_3 symbol_29)))
(assert (not (= symbol_1 symbol_29)))
(assert (not (= symbol_25 symbol_27)))
(assert (not (= symbol_23 symbol_27)))
(assert (not (= symbol_21 symbol_27)))
(assert (not (= symbol_19 symbol_27)))
(assert (not (= symbol_17 symbol_27)))
(assert (not (= symbol_15 symbol_27)))
(assert (not (= symbol_13 symbol_27)))
(assert (not (= symbol_11 symbol_27)))
(assert (not (= symbol_9 symbol_27)))
(assert (not (= symbol_7 symbol_27)))
(assert (not (= symbol_5 symbol_27)))
(assert (not (= symbol_3 symbol_27)))
(assert (not (= symbol_1 symbol_27)))
(assert (not (= symbol_23 symbol_25)))
(assert (not (= symbol_21 symbol_25)))
(assert (not (= symbol_19 symbol_25)))
(assert (not (= symbol_17 symbol_25)))
(assert (not (= symbol_15 symbol_25)))
(assert (not (= symbol_13 symbol_25)))
(assert (not (= symbol_11 symbol_25)))
(assert (not (= symbol_9 symbol_25)))
(assert (not (= symbol_7 symbol_25)))
(assert (not (= symbol_5 symbol_25)))
(assert (not (= symbol_3 symbol_25)))
(assert (not (= symbol_1 symbol_25)))
(assert (not (= symbol_21 symbol_23)))
(assert (not (= symbol_19 symbol_23)))
(assert (not (= symbol_17 symbol_23)))
(assert (not (= symbol_15 symbol_23)))
(assert (not (= symbol_13 symbol_23)))
(assert (not (= symbol_11 symbol_23)))
(assert (not (= symbol_9 symbol_23)))
(assert (not (= symbol_7 symbol_23)))
(assert (not (= symbol_5 symbol_23)))
(assert (not (= symbol_3 symbol_23)))
(assert (not (= symbol_1 symbol_23)))
(assert (not (= symbol_19 symbol_21)))
(assert (not (= symbol_17 symbol_21)))
(assert (not (= symbol_15 symbol_21)))
(assert (not (= symbol_13 symbol_21)))
(assert (not (= symbol_11 symbol_21)))
(assert (not (= symbol_9 symbol_21)))
(assert (not (= symbol_7 symbol_21)))
(assert (not (= symbol_5 symbol_21)))
(assert (not (= symbol_3 symbol_21)))
(assert (not (= symbol_1 symbol_21)))
(assert (not (= symbol_17 symbol_19)))
(assert (not (= symbol_15 symbol_19)))
(assert (not (= symbol_13 symbol_19)))
(assert (not (= symbol_11 symbol_19)))
(assert (not (= symbol_9 symbol_19)))
(assert (not (= symbol_7 symbol_19)))
(assert (not (= symbol_5 symbol_19)))
(assert (not (= symbol_3 symbol_19)))
(assert (not (= symbol_1 symbol_19)))
(assert (not (= symbol_15 symbol_17)))
(assert (not (= symbol_13 symbol_17)))
(assert (not (= symbol_11 symbol_17)))
(assert (not (= symbol_9 symbol_17)))
(assert (not (= symbol_7 symbol_17)))
(assert (not (= symbol_5 symbol_17)))
(assert (not (= symbol_3 symbol_17)))
(assert (not (= symbol_1 symbol_17)))
(assert (not (= symbol_13 symbol_15)))
(assert (not (= symbol_11 symbol_15)))
(assert (not (= symbol_9 symbol_15)))
(assert (not (= symbol_7 symbol_15)))
(assert (not (= symbol_5 symbol_15)))
(assert (not (= symbol_3 symbol_15)))
(assert (not (= symbol_1 symbol_15)))
(assert (not (= symbol_11 symbol_13)))
(assert (not (= symbol_9 symbol_13)))
(assert (not (= symbol_7 symbol_13)))
(assert (not (= symbol_5 symbol_13)))
(assert (not (= symbol_3 symbol_13)))
(assert (not (= symbol_1 symbol_13)))
(assert (not (= symbol_9 symbol_11)))
(assert (not (= symbol_7 symbol_11)))
(assert (not (= symbol_5 symbol_11)))
(assert (not (= symbol_3 symbol_11)))
(assert (not (= symbol_1 symbol_11)))
(assert (not (= symbol_7 symbol_9)))
(assert (not (= symbol_5 symbol_9)))
(assert (not (= symbol_3 symbol_9)))
(assert (not (= symbol_1 symbol_9)))
(assert (not (= symbol_5 symbol_7)))
(assert (not (= symbol_3 symbol_7)))
(assert (not (= symbol_1 symbol_7)))
(assert (not (= symbol_3 symbol_5)))
(assert (not (= symbol_1 symbol_5)))
(assert (not (= symbol_1 symbol_3)))
(check-sat)